<number of tasks>
50

<cycle time>
1000

<order strength>
0.595


<task times>
1 366
2 496
3 674
4 578
5 554
6 429
7 562
8 303
9 504
10 645
11 531
12 577
13 519
14 725
15 410
16 652
17 307
18 606
19 424
20 421
21 682
22 411
23 491
24 289
25 733
26 423
27 366
28 445
29 673
30 773
31 692
32 399
33 492
34 527
35 446
36 413
37 743
38 501
39 595
40 586
41 674
42 332
43 587
44 563
45 391
46 440
47 413
48 631
49 496
50 424

<precedence relations>
1,15
2,15
3,27
4,5
4,6
4,7
4,8
4,9
4,10
4,11
5,15
6,15
7,15
8,27
9,13
9,18
9,29
10,12
10,18
11,12
11,13
11,14
12,15
13,39
14,15
14,16
14,17
14,18
15,19
15,20
15,21
15,22
15,23
15,24
16,27
17,27
18,24
18,25
18,36
19,27
20,26
20,27
20,28
21,29
23,28
23,41
24,26
24,28
24,35
25,50
26,39
27,30
27,31
27,32
27,33
27,34
29,30
29,35
30,39
31,36
31,37
31,38
32,36
34,40
34,50
35,37
35,38
36,39
37,40
37,41
37,42
38,39
39,43
39,44
39,45
39,46
39,47
40,48
43,49
44,49
44,50
45,48
46,48

<end>
